param set_len = 26;
param target_sum = 80027371;
param values := [1] 5664665 [2] 2480830 [3] 2165945 [4] 8112216 [5] 5842628 [6] 4120690 [7] 6806862 [8] 2405110 [9] 7180418 [10] 8134331 [11] 5744476 [12] 4419314 [13] 4022875 [14] 6760600 [15] 7972665 [16] 168775 [17] 7647312 [18] 869990 [19] 6247004 [20] 3942695 [21] 7978670 [22] 4291561 [23] 2726824 [24] 233229 [25] 5808129 [26] 53956 ;
